Results/Experiment 1 Results/Existing Benchmark/RES_100/i-100-100-6.txt
solutions: 0 nodes: 3  modelTime: 116  solveTime: 26  totalTime: 151  modelSize: 8381  readTime: 9 matchingSize: 0
