Results/Experiment 2 Results/Existing Benchmark/i-100-100-6.lp
clingo version 5.4.0
Reading from tempSRTISolver.lp ...
Solving...
UNSATISFIABLE

Models       : 0
Calls        : 1
Time         : 87.842s (Solving: 10.72s 1st Model: 0.00s Unsat: 10.72s)
CPU Time     : 87.828s
